language ESSENCE' 1.0
$ loaded file: carseqdata/csplib-instance-77
letting numcars=200
letting numclasses=27
letting numoptions=5
letting optMax=[1, 2, 1, 2, 1]
letting windowSize=[2, 3, 3, 5, 5]
letting numberPerClass=[4, 4, 1, 11, 4, 3, 3, 3, 10, 4, 3, 1, 4, 15, 13, 23, 4, 3, 2, 6, 17, 9, 1, 29, 10, 12, 1]
letting optionsRequired=[[0, 1, 1, 1, 0], [1, 0, 1, 1, 0], [0, 0, 1, 0, 1], [1, 1, 0, 1, 0], [0, 1, 0, 1, 1], [0, 0, 0, 0, 1], [1, 0, 0, 1, 1], [1, 1, 1, 1, 0], [0, 1, 1, 0, 0], [1, 0, 0, 0, 1], [0, 0, 1, 1, 1], [0, 1, 1, 1, 1], [0, 0, 1, 1, 0], [0, 1, 0, 1, 0], [0, 0, 1, 0, 0], [1, 1, 0, 0, 0], [1, 0, 1, 0, 0], [1, 1, 0, 0, 1], [0, 1, 1, 0, 1], [1, 1, 1, 0, 0], [1, 0, 0, 0, 0], [0, 1, 0, 0, 1], [1, 0, 1, 0, 1], [0, 1, 0, 0, 0], [1, 0, 0, 1, 0], [0, 0, 0, 0, 0], [1, 0, 0, 0, 0]]
